NAME : prob25e
TYPE : PDTSP
DIMENSION : 51
EDGE_WEIGHT_TYPE : EUC_2D
NODE_COORD_SECTION
1 365 941
2 508 558
3 185 282
4 910 77
5 275 789
6 844 75
7 359 733
8 196 308
9 596 335
10 520 990
11 634 612
12 956 79
13 491 671
14 930 452
15 234 210
16 253 197
17 239 114
18 527 801
19 72 305
20 454 251
21 479 960
22 586 530
23 81 975
24 827 793
25 311 71
26 893 708
27 100 329
28 622 376
29 213 409
30 294 646
31 21 382
32 681 925
33 494 617
34 755 232
35 209 402
36 468 747
37 982 175
38 850 681
39 201 64
40 323 513
41 974 495
42 334 410
43 522 671
44 609 724
45 49 570
46 785 361
47 46 494
48 422 460
49 177 428
50 138 394
51 702 19
PICKUP_AND_DELIVERY_SECTION
1 0 0 0 0 0 0
2 0 0 0 0 27 0
3 0 0 0 0 28 0
4 0 0 0 0 29 0
5 0 0 0 0 30 0
6 0 0 0 0 31 0
7 0 0 0 0 32 0
8 0 0 0 0 33 0
9 0 0 0 0 34 0
10 0 0 0 0 35 0
11 0 0 0 0 36 0
12 0 0 0 0 37 0
13 0 0 0 0 38 0
14 0 0 0 0 39 0
15 0 0 0 0 40 0
16 0 0 0 0 41 0
17 0 0 0 0 42 0
18 0 0 0 0 43 0
19 0 0 0 0 44 0
20 0 0 0 0 45 0
21 0 0 0 0 46 0
22 0 0 0 0 47 0
23 0 0 0 0 48 0
24 0 0 0 0 49 0
25 0 0 0 0 50 0
26 0 0 0 0 51 0
27 0 0 0 0 0 2
28 0 0 0 0 0 3
29 0 0 0 0 0 4
30 0 0 0 0 0 5
31 0 0 0 0 0 6
32 0 0 0 0 0 7
33 0 0 0 0 0 8
34 0 0 0 0 0 9
35 0 0 0 0 0 10
36 0 0 0 0 0 11
37 0 0 0 0 0 12
38 0 0 0 0 0 13
39 0 0 0 0 0 14
40 0 0 0 0 0 15
41 0 0 0 0 0 16
42 0 0 0 0 0 17
43 0 0 0 0 0 18
44 0 0 0 0 0 19
45 0 0 0 0 0 20
46 0 0 0 0 0 21
47 0 0 0 0 0 22
48 0 0 0 0 0 23
49 0 0 0 0 0 24
50 0 0 0 0 0 25
51 0 0 0 0 0 26
DEPOT_SECTION
1 
-1
EOF
